%chk=ethane.chk
%mem=4GB
%nproc=8

# B3LYP/6-311G(d,p) opt freq

Ethane geometry optimization and frequency

0 1
C   0.000000    0.000000    0.000000
C   1.540000    0.000000    0.000000
H  -0.540000    0.940000    0.000000
H  -0.540000   -0.470000    0.814000
H  -0.540000   -0.470000   -0.814000
H   2.080000   -0.940000    0.000000
H   2.080000    0.470000    0.814000
H   2.080000    0.470000   -0.814000
