# HF/STO-3G

Methane single point

0 1
C   0.000000    0.000000    0.000000
H   0.629000    0.629000    0.629000
H  -0.629000   -0.629000    0.629000
H  -0.629000    0.629000   -0.629000
H   0.629000   -0.629000   -0.629000
