%chk=water.chk
%mem=2GB
%nproc=4

# B3LYP/6-31G(d) opt freq

Water molecule optimization

0 1
O   0.000000    0.000000    0.000000
H   0.757160    0.586260    0.000000
H  -0.757160    0.586260    0.000000
