%nprocshared=8
%mem=16GB
%chk=water_opt.chk
#p B3LYP/6-31G(d) opt freq

Water molecule optimization

0 1
O     0.000000     0.000000     0.117489
H     0.000000     0.757210    -0.469957
H     0.000000    -0.757210    -0.469957
