! Missing the mandatory '# ... ' route card
%mem=1GB
%nproc=4

water optimization

0 1
O     0.000000   0.000000   0.117489
H     0.000000   0.757210  -0.469957
H     0.000000  -0.757210  -0.469957
